
Gurobi 11.0.3 (linux64) logging started Tue 19 Nov 2024 01:31:12 AM CST

Set parameter LogFile to value "/home/dlcole3/graph_abstraction/hierarchical_graphs/git_storage/CS1/HP_low_reserves/gurobi_logs/serial/logfile_ST30_1.log"

Gurobi 11.0.3 (linux64) logging started Tue 19 Nov 2024 01:32:11 AM CST

Set parameter LogFile to value "/home/dlcole3/graph_abstraction/hierarchical_graphs/git_storage/CS1/HP_low_reserves/gurobi_logs/serial/logfile_ST30_1.log"
Gurobi Optimizer version 11.0.3 build v11.0.3rc0 (linux64 - "Ubuntu 18.04.3 LTS")

CPU model: Intel(R) Xeon(R) CPU E5-2698 v4 @ 2.20GHz, instruction set [SSE2|AVX|AVX2]
Thread count: 40 physical cores, 80 logical processors, using up to 20 threads

Optimize a model with 29168 rows, 50688 columns and 136175 nonzeros
Model fingerprint: 0xad4355fc
Variable types: 46944 continuous, 3744 integer (3744 binary)
Coefficient statistics:
  Matrix range     [6e-01, 2e+04]
  Objective range  [2e+00, 2e+04]
  Bounds range     [5e-02, 2e+05]
  RHS range        [3e-03, 7e+03]
Presolve removed 14097 rows and 38528 columns
Presolve time: 0.39s
Presolved: 15071 rows, 12160 columns, 64393 nonzeros
Variable types: 9131 continuous, 3029 integer (3029 binary)
Found heuristic solution: objective 162884.79900
Found heuristic solution: objective 123771.70599

Root relaxation: objective 4.172325e-07, 9177 iterations, 0.32 seconds (0.22 work units)

    Nodes    |    Current Node    |     Objective Bounds      |     Work
 Expl Unexpl |  Obj  Depth IntInf | Incumbent    BestBd   Gap | It/Node Time

*    0     0               0       0.0000007    0.00000      -     -    1s
     0     0          -    0         0.00000    0.00000      -     -    1s
     0     0          -    0         0.00000    0.00000      -     -    1s
     0     0     cutoff    0         0.00000    0.00000  0.00%     -    1s

Explored 1 nodes (14423 simplex iterations) in 1.98 seconds (1.24 work units)
Thread count was 20 (of 80 available processors)

Solution count 3: 7.45058e-07 123772 162885 

Optimal solution found (tolerance 3.00e-03)
Best objective 7.848181776154e-07, best bound 7.450580596924e-07, gap -

User-callback calls 1340, time in user-callback 0.00 sec
